dates = {'2022-02-02','2022-02-03','2022-02-04','2022-02-05','2022-02-06','2022-02-07','2022-02-08','2022-02-09','2022-02-10','2022-02-11','2022-02-12','2022-02-13','2022-02-14','2022-02-15','2022-02-16','2022-02-17','2022-02-18','2022-02-19','2022-02-20','2022-02-21'};

2daysOfWeek = [Wednesday,Thursday,Friday,Saturday,Sunday,Monday,Tuesday,Wednesday,Thursday,Friday,Saturday,Sunday,Monday,Tuesday,Wednesday,Thursday,Friday,Saturday,Sunday,Monday];

% For this week, how many people will be here.
numPeople = [160,155,158,158,158,154,156,156,156,156,156,156,156,163,163,163,162,147
,161,157];

% Physical workers need 50 to 100 % more nutrients per day.
numPhysicalWorkers = [54.0,54.0,53.0,53.0,53.0,53.0,51.5,51.5,51.5,51.5,51.5,51.5,55.0,50.5
,50.5,50.5,50.5,50.5,47.0,47.0];

% Males need +25% more nutrients per day.
numMen = [132,132,132,132,132,132,128,128,128,128,128,128,132,134,134,134,134,136
,145,133];

% Num people who do not eat categories. contains = {none, meat, milk, gluten, egg, nut, seed, sugars}
numRefusals = [| 0,0,3,5,0,2,0,1 | 0,0,2,8,0,13,0,2 | 0,0,0,7,0,0,3,9 | 0,0,0,7,0,0,3,9 | 0,0,0,7,0,0,3,9 | 0,0,0,0,0,3,0,0 | 0,0,7,9,0,0,3,0 | 0,0,7,9,0,0,3,0 | 0,0,7,9,0,0,3,0 | 0,0,7,9,0,0,3,0 | 0,0,7,9,0,0,3,0 | 0,0,7,9,0,0,3,0 | 0,0,7,9,0,0,3,0 | 0,0,1,0,0,0,0,7 | 0,0,1,0,0,0,0,7 | 0,0,1,0,0,0,0,7 | 0,0,0,8,13,0,15,0 | 0,0,0,0,4,2,1,0 | 0,7,0,8,0,0,8,1 | 0,0,0,0,0,7,0,2 |];

